
Log started (V11.0.0) Tue May 13 12:11:52 2008

Tried aggregator 1 time.
Reduced MIP has 110 rows, 1001 columns, and 2010 nonzeros.
Presolve time =    0.02 sec.
Clique table members: 100.
MIP emphasis: balance optimality and feasibility.
MIP search method: dynamic search.
Parallel mode: none, using 1 thread.
Root relaxation solution time =    0.02 sec.

        Nodes                                         Cuts/
   Node  Left     Objective  IInf  Best Integer     Best Node    ItCnt     Gap

*     0+    0                        11019.0000     1016.1122      153   90.78%
*     0+    0                         1027.0000     1016.1122      153    1.06%
      0     0     1017.0000    18     1027.0000      Fract: 7      176    0.97%
      0     0     1017.0000    20     1027.0000     Covers: 1      178    0.97%
      0     0     1017.0000    22     1027.0000     Covers: 1      179    0.97%
*     0+    0                         1026.0000     1017.0000      179    0.88%
      0     2     1017.0000    22     1026.0000     1017.0000      179    0.88%
*    10+   10                         1024.0000     1017.0000      331    0.68%
    100    82     1020.0000    17     1024.0000     1017.0000     2355    0.68%
    200   140        cutoff           1024.0000     1017.0000     5650    0.68%
*   257+  143                         1023.0000     1017.0000     6800    0.59%
    300   185     1018.0000    19     1023.0000     1017.0000     7519    0.59%
    400   242     1021.0000    18     1023.0000     1017.0000     9241    0.59%
*   493+  198                         1020.0000     1017.0000    11368    0.29%
    500   200     1017.0000    20     1020.0000     1017.0000    12493    0.29%
*   593+   90                         1018.0000     1017.0000    14144    0.10%
    600    86     1017.0000    20     1018.0000     1017.0000    14269    0.10%
    700    46     1017.0000    24     1018.0000     1017.0000    16387    0.10%
    800    35    infeasible           1018.0000     1017.0000    18931    0.10%
    900    47    infeasible           1018.0000     1017.0000    21537    0.10%
   1000    34    infeasible           1018.0000     1017.0000    24245    0.10%
Elapsed time =   3.30 sec. (tree size =  0.02 MB, solutions = 7)
   1100    15     1017.0000    26     1018.0000     1017.0000    26992    0.10%
   1200    28    infeasible           1018.0000     1017.0000    29170    0.10%
   1300    23     1017.0000    20     1018.0000     1017.0000    31635    0.10%
   1400    11    infeasible           1018.0000     1017.0000    34083    0.10%
   1500    12    infeasible           1018.0000     1017.0000    38111    0.10%
   1600    12    infeasible           1018.0000     1017.0000    41062    0.10%

Mixed integer rounding cuts applied:  2
Gomory fractional cuts applied:  4

Solution pool: 7 solutions saved.

MIP - Integer optimal solution:  Objective = 1.0180000000e+003
Solution time =    4.33 sec.  Iterations = 41794  Nodes = 1619


Incumbent solution
Variable Name           Solution Value
Cmax                       1018.000000
X_1_4                         1.000000
X_2_8                         1.000000
X_3_10                        1.000000
X_4_5                         1.000000
X_5_5                         1.000000
X_6_7                         1.000000
X_7_5                         1.000000
X_8_6                         1.000000
X_9_1                         1.000000
X_10_3                        1.000000
X_11_10                       1.000000
X_12_4                        1.000000
X_13_2                        1.000000
X_14_2                        1.000000
X_15_5                        1.000000
X_16_3                        1.000000
X_17_9                        1.000000
X_18_7                        1.000000
X_19_8                        1.000000
X_20_3                        1.000000
X_21_2                        1.000000
X_22_9                        1.000000
X_23_7                        1.000000
X_24_6                        1.000000
X_25_3                        1.000000
X_26_2                        1.000000
X_27_10                       1.000000
X_28_9                        1.000000
X_29_8                        1.000000
X_30_9                        1.000000
X_31_10                       1.000000
X_32_1                        1.000000
X_33_6                        1.000000
X_34_9                        1.000000
X_35_1                        1.000000
X_36_2                        1.000000
X_37_2                        1.000000
X_38_3                        1.000000
X_39_8                        1.000000
X_40_8                        1.000000
X_41_1                        1.000000
X_42_7                        1.000000
X_43_4                        1.000000
X_44_2                        1.000000
X_45_4                        1.000000
X_46_6                        1.000000
X_47_10                       1.000000
X_48_3                        1.000000
X_49_8                        1.000000
X_50_10                       1.000000
X_51_10                       1.000000
X_52_1                        1.000000
X_53_3                        1.000000
X_54_1                        1.000000
X_55_5                        1.000000
X_56_4                        1.000000
X_57_6                        1.000000
X_58_3                        1.000000
X_59_4                        1.000000
X_60_9                        1.000000
X_61_4                        1.000000
X_62_9                        1.000000
X_63_2                        1.000000
X_64_5                        1.000000
X_65_4                        1.000000
X_66_7                        1.000000
X_67_5                        1.000000
X_68_8                        1.000000
X_69_6                        1.000000
X_70_6                        1.000000
X_71_1                        1.000000
X_72_5                        1.000000
X_73_1                        1.000000
X_74_10                       1.000000
X_75_9                        1.000000
X_76_4                        1.000000
X_77_1                        1.000000
X_78_7                        1.000000
X_79_8                        1.000000
X_80_3                        1.000000
X_81_2                        1.000000
X_82_4                        1.000000
X_83_3                        1.000000
X_84_5                        1.000000
X_85_7                        1.000000
X_86_10                       1.000000
X_87_7                        1.000000
X_88_5                        1.000000
X_89_8                        1.000000
X_90_7                        1.000000
X_91_6                        1.000000
X_92_6                        1.000000
X_93_8                        1.000000
X_94_9                        1.000000
X_95_9                        1.000000
X_96_2                        1.000000
X_97_6                        1.000000
X_98_10                       1.000000
X_99_1                        1.000000
X_100_7                       1.000000
All other variables in the range 1-1001 are 0.
